400
400 400
1 320 484
2 319 17
3 319 808
4 319 211
5 318 391
6 317 429
7 316 421
8 316 448
9 315 261
10 314 828
11 314 418
12 314 475
13 312 751
14 312 522
15 310 379
16 309 197
17 307 879
18 307 356
19 306 327
20 306 471
21 305 707
22 303 18
23 303 678
24 302 909
25 301 911
26 301 937
27 300 266
28 300 688
29 296 102
30 296 103
31 296 275
32 296 603
33 296 157
34 295 631
35 295 926
36 294 930
37 294 948
38 294 289
39 293 180
40 292 649
41 292 768
42 291 380
43 291 683
44 291 971
45 290 535
46 290 509
47 289 857
48 288 102
49 287 845
50 287 166
51 286 444
52 285 37
53 284 869
54 283 43
55 283 218
56 283 631
57 283 813
58 283 731
59 283 634
60 282 64
61 281 49
62 280 529
63 280 827
64 279 289
65 279 656
66 278 243
67 278 777
68 277 360
69 277 973
70 277 376
71 276 669
72 276 758
73 274 185
74 273 381
75 272 794
76 271 179
77 271 822
78 271 108
79 270 42
80 270 2
81 270 722
82 269 454
83 269 4
84 268 408
85 266 827
86 266 575
87 264 434
88 264 898
89 264 863
90 263 116
91 263 710
92 262 708
93 262 812
94 261 144
95 260 955
96 260 3
97 259 795
98 259 447
99 258 871
100 257 399
101 256 160
102 255 498
103 255 130
104 254 597
105 254 1000
106 253 688
107 253 155
108 253 642
109 250 567
110 249 890
111 248 917
112 247 941
113 245 821
114 245 4
115 244 7
116 244 304
117 244 675
118 241 829
119 241 731
120 241 715
121 240 894
122 240 587
123 239 822
124 239 161
125 237 8
126 237 71
127 236 793
128 234 459
129 233 631
130 232 973
131 232 493
132 232 32
133 232 179
134 231 87
135 231 586
136 231 72
137 231 250
138 231 712
139 229 768
140 229 770
141 228 641
142 226 20
143 225 844
144 225 997
145 224 525
146 224 478
147 223 861
148 222 400
149 222 430
150 222 49
151 221 817
152 220 64
153 219 831
154 218 621
155 216 145
156 216 407
157 215 516
158 215 147
159 214 411
160 212 196
161 211 735
162 210 770
163 210 276
164 209 233
165 208 119
166 207 980
167 207 187
168 207 963
169 206 822
170 206 182
171 206 924
172 205 997
173 204 91
174 204 20
175 204 819
176 204 910
177 203 609
178 203 224
179 202 452
180 202 415
181 202 55
182 201 676
183 200 537
184 199 144
185 199 897
186 198 667
187 197 688
188 197 944
189 196 329
190 196 702
191 196 385
192 195 995
193 195 317
194 194 910
195 194 316
196 193 757
197 193 578
198 192 994
199 191 217
200 191 510
201 187 700
202 185 839
203 185 256
204 184 334
205 184 45
206 182 626
207 182 153
208 181 899
209 181 602
210 181 260
211 180 308
212 179 182
213 178 866
214 177 133
215 177 235
216 177 107
217 177 288
218 176 294
219 176 329
220 173 760
221 172 301
222 171 213
223 171 574
224 169 123
225 169 746
226 169 774
227 168 913
228 168 206
229 168 827
230 168 114
231 167 129
232 167 922
233 167 533
234 166 834
235 166 798
236 166 329
237 166 574
238 166 219
239 165 143
240 164 917
241 163 127
242 162 484
243 161 534
244 160 566
245 159 496
246 159 729
247 158 403
248 158 474
249 158 548
250 157 356
251 156 733
252 156 332
253 154 407
254 154 540
255 152 535
256 152 431
257 151 509
258 150 634
259 149 646
260 147 697
261 147 129
262 147 12
263 146 431
264 146 741
265 145 567
266 145 185
267 144 856
268 144 343
269 143 481
270 141 538
271 140 636
272 140 186
273 139 135
274 137 764
275 136 265
276 136 583
277 136 448
278 136 331
279 135 205
280 135 38
281 135 250
282 134 989
283 133 545
284 133 696
285 131 59
286 131 322
287 130 412
288 129 448
289 127 875
290 127 482
291 127 430
292 126 225
293 123 667
294 122 961
295 121 934
296 121 622
297 121 969
298 120 489
299 120 879
300 120 770
301 119 436
302 119 724
303 119 73
304 118 76
305 118 588
306 117 472
307 116 386
308 116 930
309 116 821
310 115 391
311 115 637
312 115 880
313 113 263
314 112 903
315 111 816
316 108 499
317 108 774
318 106 398
319 105 847
320 104 555
321 103 385
322 102 924
323 101 488
324 100 388
325 100 625
326 99 196
327 98 655
328 97 286
329 97 756
330 97 555
331 96 139
332 96 10
333 94 301
334 94 511
335 94 25
336 93 17
337 92 188
338 92 331
339 91 905
340 90 361
341 89 314
342 88 902
343 88 936
344 87 347
345 86 328
346 86 797
347 86 80
348 85 620
349 85 517
350 84 48
351 84 188
352 84 330
353 84 238
354 83 789
355 79 232
356 78 411
357 76 903
358 76 876
359 75 985
360 74 871
361 74 559
362 74 395
363 73 854
364 72 201
365 70 569
366 69 566
367 68 126
368 68 47
369 66 154
370 64 740
371 62 522
372 61 479
373 61 976
374 60 651
375 60 592
376 58 386
377 58 113
378 56 561
379 56 382
380 55 85
381 55 385
382 54 590
383 54 227
384 51 638
385 51 86
386 51 840
387 50 137
388 49 353
389 49 592
390 49 460
391 48 398
392 48 20
393 48 215
394 47 711
395 46 746
396 46 565
397 45 568
398 44 266
399 40 558
400 40 781
